result&benchmarks/Data/Ex1/verify/Output/gcnr2008_process_dc_iter1Output/Counterexample.3.txt
none:	N37 -{INIT GLOBAL VARS}-> N89
/usr/include/assert.h, lines 69-71:	N89 -{void __assert_fail(const char *__assertion, const char *__file, unsigned int __line, const char *__function);}-> N90
/usr/include/assert.h, lines 74-76:	N90 -{void __assert_perror_fail(int __errnum, const char *__file, unsigned int __line, const char *__function);}-> N91
/usr/include/assert.h, lines 81-82:	N91 -{void __assert(const char *__assertion, const char *__file, int __line);}-> N92
/usr/lib/gcc/x86_64-linux-gnu/11/include/stddef.h, line 209:	N92 -{typedef unsigned long int size_t;}-> N93
/usr/lib/gcc/x86_64-linux-gnu/11/include/stddef.h, line 321:	N93 -{typedef int wchar_t;}-> N94
/usr/include/stdlib.h, lines 59-63:	N94 -{struct __anon_type_div_t {   int quot;   int rem; } ;}-> N95
/usr/include/stdlib.h, lines 59-63:	N95 -{typedef struct __anon_type_div_t div_t;}-> N96
/usr/include/stdlib.h, lines 67-71:	N96 -{struct __anon_type_ldiv_t {   long int quot;   long int rem; } ;}-> N97
/usr/include/stdlib.h, lines 67-71:	N97 -{typedef struct __anon_type_ldiv_t ldiv_t;}-> N98
/usr/include/stdlib.h, lines 77-81:	N98 -{struct __anon_type_lldiv_t {   long long int quot;   long long int rem; } ;}-> N99
/usr/include/stdlib.h, lines 77-81:	N99 -{typedef struct __anon_type_lldiv_t lldiv_t;}-> N100
/usr/include/stdlib.h, line 98:	N100 -{size_t __ctype_get_mb_cur_max();}-> N101
/usr/include/stdlib.h, lines 102-103:	N101 -{double atof(const char *__nptr);}-> N102
/usr/include/stdlib.h, lines 105-106:	N102 -{int atoi(const char *__nptr);}-> N103
/usr/include/stdlib.h, lines 108-109:	N103 -{long int atol(const char *__nptr);}-> N104
/usr/include/stdlib.h, lines 113-114:	N104 -{long long int atoll(const char *__nptr);}-> N105
/usr/include/stdlib.h, lines 118-120:	N105 -{double strtod(const char *__nptr, char **__endptr);}-> N106
/usr/include/stdlib.h, lines 124-125:	N106 -{float strtof(const char *__nptr, char **__endptr);}-> N107
/usr/include/stdlib.h, lines 127-129:	N107 -{long double strtold(const char *__nptr, char **__endptr);}-> N108
/usr/include/stdlib.h, lines 177-179:	N108 -{long int strtol(const char *__nptr, char **__endptr, int __base);}-> N109
/usr/include/stdlib.h, lines 181-183:	N109 -{unsigned long int strtoul(const char *__nptr, char **__endptr, int __base);}-> N110
/usr/include/stdlib.h, lines 188-190:	N110 -{long long int strtoq(const char *__nptr, char **__endptr, int __base);}-> N111
/usr/include/stdlib.h, lines 193-195:	N111 -{unsigned long long int strtouq(const char *__nptr, char **__endptr, int __base);}-> N112
/usr/include/stdlib.h, lines 201-203:	N112 -{long long int strtoll(const char *__nptr, char **__endptr, int __base);}-> N113
/usr/include/stdlib.h, lines 206-208:	N113 -{unsigned long long int strtoull(const char *__nptr, char **__endptr, int __base);}-> N114
/usr/include/stdlib.h, line 386:	N114 -{char *l64a(long int __n);}-> N115
/usr/include/stdlib.h, lines 389-390:	N115 -{long int a64l(const char *__s);}-> N116
/usr/include/x86_64-linux-gnu/bits/types.h, line 31:	N116 -{typedef unsigned char __u_char;}-> N117
/usr/include/x86_64-linux-gnu/bits/types.h, line 32:	N117 -{typedef unsigned short int __u_short;}-> N118
/usr/include/x86_64-linux-gnu/bits/types.h, line 33:	N118 -{typedef unsigned int __u_int;}-> N119
/usr/include/x86_64-linux-gnu/bits/types.h, line 34:	N119 -{typedef unsigned long int __u_long;}-> N120
/usr/include/x86_64-linux-gnu/bits/types.h, line 37:	N120 -{typedef signed char __int8_t;}-> N121
/usr/include/x86_64-linux-gnu/bits/types.h, line 38:	N121 -{typedef unsigned char __uint8_t;}-> N122
/usr/include/x86_64-linux-gnu/bits/types.h, line 39:	N122 -{typedef signed short int __int16_t;}-> N123
/usr/include/x86_64-linux-gnu/bits/types.h, line 40:	N123 -{typedef unsigned short int __uint16_t;}-> N124
/usr/include/x86_64-linux-gnu/bits/types.h, line 41:	N124 -{typedef signed int __int32_t;}-> N125
/usr/include/x86_64-linux-gnu/bits/types.h, line 42:	N125 -{typedef unsigned int __uint32_t;}-> N126
/usr/include/x86_64-linux-gnu/bits/types.h, line 44:	N126 -{typedef signed long int __int64_t;}-> N127
/usr/include/x86_64-linux-gnu/bits/types.h, line 45:	N127 -{typedef unsigned long int __uint64_t;}-> N128
/usr/include/x86_64-linux-gnu/bits/types.h, line 52:	N128 -{typedef __int8_t __int_least8_t;}-> N129
/usr/include/x86_64-linux-gnu/bits/types.h, line 53:	N129 -{typedef __uint8_t __uint_least8_t;}-> N130
/usr/include/x86_64-linux-gnu/bits/types.h, line 54:	N130 -{typedef __int16_t __int_least16_t;}-> N131
/usr/include/x86_64-linux-gnu/bits/types.h, line 55:	N131 -{typedef __uint16_t __uint_least16_t;}-> N132
/usr/include/x86_64-linux-gnu/bits/types.h, line 56:	N132 -{typedef __int32_t __int_least32_t;}-> N133
/usr/include/x86_64-linux-gnu/bits/types.h, line 57:	N133 -{typedef __uint32_t __uint_least32_t;}-> N134
/usr/include/x86_64-linux-gnu/bits/types.h, line 58:	N134 -{typedef __int64_t __int_least64_t;}-> N135
/usr/include/x86_64-linux-gnu/bits/types.h, line 59:	N135 -{typedef __uint64_t __uint_least64_t;}-> N136
/usr/include/x86_64-linux-gnu/bits/types.h, line 63:	N136 -{typedef long int __quad_t;}-> N137
/usr/include/x86_64-linux-gnu/bits/types.h, line 64:	N137 -{typedef unsigned long int __u_quad_t;}-> N138
/usr/include/x86_64-linux-gnu/bits/types.h, line 72:	N138 -{typedef long int __intmax_t;}-> N139
/usr/include/x86_64-linux-gnu/bits/types.h, line 73:	N139 -{typedef unsigned long int __uintmax_t;}-> N140
/usr/include/x86_64-linux-gnu/bits/types.h, line 145:	N140 -{typedef unsigned long int __dev_t;}-> N141
/usr/include/x86_64-linux-gnu/bits/types.h, line 146:	N141 -{typedef unsigned int __uid_t;}-> N142
/usr/include/x86_64-linux-gnu/bits/types.h, line 147:	N142 -{typedef unsigned int __gid_t;}-> N143
/usr/include/x86_64-linux-gnu/bits/types.h, line 148:	N143 -{typedef unsigned long int __ino_t;}-> N144
/usr/include/x86_64-linux-gnu/bits/types.h, line 149:	N144 -{typedef unsigned long int __ino64_t;}-> N145
/usr/include/x86_64-linux-gnu/bits/types.h, line 150:	N145 -{typedef unsigned int __mode_t;}-> N146
/usr/include/x86_64-linux-gnu/bits/types.h, line 151:	N146 -{typedef unsigned long int __nlink_t;}-> N147
/usr/include/x86_64-linux-gnu/bits/types.h, line 152:	N147 -{typedef long int __off_t;}-> N148
/usr/include/x86_64-linux-gnu/bits/types.h, line 153:	N148 -{typedef long int __off64_t;}-> N149
/usr/include/x86_64-linux-gnu/bits/types.h, line 154:	N149 -{typedef int __pid_t;}-> N150
/usr/include/x86_64-linux-gnu/bits/types.h, line 155:	N150 -{struct __anon_type___fsid_t {   int __val[2]; } ;}-> N151
/usr/include/x86_64-linux-gnu/bits/types.h, line 155:	N151 -{typedef struct __anon_type___fsid_t __fsid_t;}-> N152
/usr/include/x86_64-linux-gnu/bits/types.h, line 156:	N152 -{typedef long int __clock_t;}-> N153
/usr/include/x86_64-linux-gnu/bits/types.h, line 157:	N153 -{typedef unsigned long int __rlim_t;}-> N154
/usr/include/x86_64-linux-gnu/bits/types.h, line 158:	N154 -{typedef unsigned long int __rlim64_t;}-> N155
/usr/include/x86_64-linux-gnu/bits/types.h, line 159:	N155 -{typedef unsigned int __id_t;}-> N156
/usr/include/x86_64-linux-gnu/bits/types.h, line 160:	N156 -{typedef long int __time_t;}-> N157
/usr/include/x86_64-linux-gnu/bits/types.h, line 161:	N157 -{typedef unsigned int __useconds_t;}-> N158
/usr/include/x86_64-linux-gnu/bits/types.h, line 162:	N158 -{typedef long int __suseconds_t;}-> N159
/usr/include/x86_64-linux-gnu/bits/types.h, line 163:	N159 -{typedef long int __suseconds64_t;}-> N160
/usr/include/x86_64-linux-gnu/bits/types.h, line 165:	N160 -{typedef int __daddr_t;}-> N161
/usr/include/x86_64-linux-gnu/bits/types.h, line 166:	N161 -{typedef int __key_t;}-> N162
/usr/include/x86_64-linux-gnu/bits/types.h, line 169:	N162 -{typedef int __clockid_t;}-> N163
/usr/include/x86_64-linux-gnu/bits/types.h, line 172:	N163 -{typedef void *__timer_t;}-> N164
/usr/include/x86_64-linux-gnu/bits/types.h, line 175:	N164 -{typedef long int __blksize_t;}-> N165
/usr/include/x86_64-linux-gnu/bits/types.h, line 180:	N165 -{typedef long int __blkcnt_t;}-> N166
/usr/include/x86_64-linux-gnu/bits/types.h, line 181:	N166 -{typedef long int __blkcnt64_t;}-> N167
/usr/include/x86_64-linux-gnu/bits/types.h, line 184:	N167 -{typedef unsigned long int __fsblkcnt_t;}-> N168
/usr/include/x86_64-linux-gnu/bits/types.h, line 185:	N168 -{typedef unsigned long int __fsblkcnt64_t;}-> N169
/usr/include/x86_64-linux-gnu/bits/types.h, line 188:	N169 -{typedef unsigned long int __fsfilcnt_t;}-> N170
/usr/include/x86_64-linux-gnu/bits/types.h, line 189:	N170 -{typedef unsigned long int __fsfilcnt64_t;}-> N171
/usr/include/x86_64-linux-gnu/bits/types.h, line 192:	N171 -{typedef long int __fsword_t;}-> N172
/usr/include/x86_64-linux-gnu/bits/types.h, line 194:	N172 -{typedef long int __ssize_t;}-> N173
/usr/include/x86_64-linux-gnu/bits/types.h, line 197:	N173 -{typedef long int __syscall_slong_t;}-> N174
/usr/include/x86_64-linux-gnu/bits/types.h, line 199:	N174 -{typedef unsigned long int __syscall_ulong_t;}-> N175
/usr/include/x86_64-linux-gnu/bits/types.h, line 203:	N175 -{typedef __off64_t __loff_t;}-> N176
/usr/include/x86_64-linux-gnu/bits/types.h, line 204:	N176 -{typedef char *__caddr_t;}-> N177
/usr/include/x86_64-linux-gnu/bits/types.h, line 207:	N177 -{typedef long int __intptr_t;}-> N178
/usr/include/x86_64-linux-gnu/bits/types.h, line 210:	N178 -{typedef unsigned int __socklen_t;}-> N179
/usr/include/x86_64-linux-gnu/bits/types.h, line 215:	N179 -{typedef int __sig_atomic_t;}-> N180
/usr/include/x86_64-linux-gnu/sys/types.h, line 33:	N180 -{typedef __u_char u_char;}-> N181
/usr/include/x86_64-linux-gnu/sys/types.h, line 34:	N181 -{typedef __u_short u_short;}-> N182
/usr/include/x86_64-linux-gnu/sys/types.h, line 35:	N182 -{typedef __u_int u_int;}-> N183
/usr/include/x86_64-linux-gnu/sys/types.h, line 36:	N183 -{typedef __u_long u_long;}-> N184
/usr/include/x86_64-linux-gnu/sys/types.h, line 37:	N184 -{typedef __quad_t quad_t;}-> N185
/usr/include/x86_64-linux-gnu/sys/types.h, line 38:	N185 -{typedef __u_quad_t u_quad_t;}-> N186
/usr/include/x86_64-linux-gnu/sys/types.h, line 39:	N186 -{typedef __fsid_t fsid_t;}-> N187
/usr/include/x86_64-linux-gnu/sys/types.h, line 42:	N187 -{typedef __loff_t loff_t;}-> N188
/usr/include/x86_64-linux-gnu/sys/types.h, line 47:	N188 -{typedef __ino_t ino_t;}-> N189
/usr/include/x86_64-linux-gnu/sys/types.h, line 59:	N189 -{typedef __dev_t dev_t;}-> N190
/usr/include/x86_64-linux-gnu/sys/types.h, line 64:	N190 -{typedef __gid_t gid_t;}-> N191
/usr/include/x86_64-linux-gnu/sys/types.h, line 69:	N191 -{typedef __mode_t mode_t;}-> N192
/usr/include/x86_64-linux-gnu/sys/types.h, line 74:	N192 -{typedef __nlink_t nlink_t;}-> N193
/usr/include/x86_64-linux-gnu/sys/types.h, line 79:	N193 -{typedef __uid_t uid_t;}-> N194
/usr/include/x86_64-linux-gnu/sys/types.h, line 85:	N194 -{typedef __off_t off_t;}-> N195
/usr/include/x86_64-linux-gnu/sys/types.h, line 97:	N195 -{typedef __pid_t pid_t;}-> N196
/usr/include/x86_64-linux-gnu/sys/types.h, line 103:	N196 -{typedef __id_t id_t;}-> N197
/usr/include/x86_64-linux-gnu/sys/types.h, line 108:	N197 -{typedef __ssize_t ssize_t;}-> N198
/usr/include/x86_64-linux-gnu/sys/types.h, line 114:	N198 -{typedef __daddr_t daddr_t;}-> N199
/usr/include/x86_64-linux-gnu/sys/types.h, line 115:	N199 -{typedef __caddr_t caddr_t;}-> N200
/usr/include/x86_64-linux-gnu/sys/types.h, line 121:	N200 -{typedef __key_t key_t;}-> N201
/usr/include/x86_64-linux-gnu/bits/types/clock_t.h, line 7:	N201 -{typedef __clock_t clock_t;}-> N202
/usr/include/x86_64-linux-gnu/bits/types/clockid_t.h, line 7:	N202 -{typedef __clockid_t clockid_t;}-> N203
/usr/include/x86_64-linux-gnu/bits/types/time_t.h, line 10:	N203 -{typedef __time_t time_t;}-> N204
/usr/include/x86_64-linux-gnu/bits/types/timer_t.h, line 7:	N204 -{typedef __timer_t timer_t;}-> N205
/usr/include/x86_64-linux-gnu/sys/types.h, line 148:	N205 -{typedef unsigned long int ulong;}-> N206
/usr/include/x86_64-linux-gnu/sys/types.h, line 149:	N206 -{typedef unsigned short int ushort;}-> N207
/usr/include/x86_64-linux-gnu/sys/types.h, line 150:	N207 -{typedef unsigned int uint;}-> N208
/usr/include/x86_64-linux-gnu/bits/stdint-intn.h, line 24:	N208 -{typedef __int8_t int8_t;}-> N209
/usr/include/x86_64-linux-gnu/bits/stdint-intn.h, line 25:	N209 -{typedef __int16_t int16_t;}-> N210
/usr/include/x86_64-linux-gnu/bits/stdint-intn.h, line 26:	N210 -{typedef __int32_t int32_t;}-> N211
/usr/include/x86_64-linux-gnu/bits/stdint-intn.h, line 27:	N211 -{typedef __int64_t int64_t;}-> N212
/usr/include/x86_64-linux-gnu/sys/types.h, line 158:	N212 -{typedef __uint8_t u_int8_t;}-> N213
/usr/include/x86_64-linux-gnu/sys/types.h, line 159:	N213 -{typedef __uint16_t u_int16_t;}-> N214
/usr/include/x86_64-linux-gnu/sys/types.h, line 160:	N214 -{typedef __uint32_t u_int32_t;}-> N215
/usr/include/x86_64-linux-gnu/sys/types.h, line 161:	N215 -{typedef __uint64_t u_int64_t;}-> N216
/usr/include/x86_64-linux-gnu/sys/types.h, line 164:	N216 -{typedef signed int register_t;}-> N217
/usr/include/x86_64-linux-gnu/bits/byteswap.h, lines 33-41:	N217 -{__uint16_t __bswap_16(__uint16_t __bsx);}-> N218
/usr/include/x86_64-linux-gnu/bits/byteswap.h, lines 48-56:	N218 -{__uint32_t __bswap_32(__uint32_t __bsx);}-> N219
/usr/include/x86_64-linux-gnu/bits/byteswap.h, lines 69-77:	N219 -{__uint64_t __bswap_64(__uint64_t __bsx);}-> N220
/usr/include/x86_64-linux-gnu/bits/uintn-identity.h, lines 32-36:	N220 -{__uint16_t __uint16_identity(__uint16_t __x);}-> N221
/usr/include/x86_64-linux-gnu/bits/uintn-identity.h, lines 38-42:	N221 -{__uint32_t __uint32_identity(__uint32_t __x);}-> N222
/usr/include/x86_64-linux-gnu/bits/uintn-identity.h, lines 44-48:	N222 -{__uint64_t __uint64_identity(__uint64_t __x);}-> N223
/usr/include/x86_64-linux-gnu/bits/types/__sigset_t.h, lines 5-8:	N223 -{struct __anon_type___sigset_t {   unsigned long int __val[32UL]; } ;}-> N224
/usr/include/x86_64-linux-gnu/bits/types/__sigset_t.h, lines 5-8:	N224 -{typedef struct __anon_type___sigset_t __sigset_t;}-> N225
/usr/include/x86_64-linux-gnu/bits/types/sigset_t.h, line 7:	N225 -{typedef __sigset_t sigset_t;}-> N226
/usr/include/x86_64-linux-gnu/bits/types/struct_timeval.h, lines 8-17:	N226 -{struct timeval {   __time_t tv_sec;   __suseconds_t tv_usec; } ;}-> N227
/usr/include/x86_64-linux-gnu/bits/types/struct_timespec.h, lines 11-31:	N227 -{struct timespec {   __time_t tv_sec;   __syscall_slong_t tv_nsec; } ;}-> N228
/usr/include/x86_64-linux-gnu/sys/select.h, line 43:	N228 -{typedef __suseconds_t suseconds_t;}-> N229
/usr/include/x86_64-linux-gnu/sys/select.h, line 49:	N229 -{typedef long int __fd_mask;}-> N230
/usr/include/x86_64-linux-gnu/sys/select.h, lines 59-70:	N230 -{struct __anon_type_fd_set {   __fd_mask __fds_bits[32]; } ;}-> N231
/usr/include/x86_64-linux-gnu/sys/select.h, lines 59-70:	N231 -{typedef struct __anon_type_fd_set fd_set;}-> N232
/usr/include/x86_64-linux-gnu/sys/select.h, line 77:	N232 -{typedef __fd_mask fd_mask;}-> N233
/usr/include/x86_64-linux-gnu/sys/select.h, lines 102-105:	N233 -{int select(int __nfds, fd_set *__readfds, fd_set *__writefds, fd_set *__exceptfds, struct timeval *__timeout);}-> N234
/usr/include/x86_64-linux-gnu/sys/select.h, lines 127-131:	N234 -{int pselect(int __nfds, fd_set *__readfds, fd_set *__writefds, fd_set *__exceptfds, const struct timespec *__timeout, const __sigset_t *__sigmask);}-> N235
/usr/include/x86_64-linux-gnu/sys/types.h, line 185:	N235 -{typedef __blksize_t blksize_t;}-> N236
/usr/include/x86_64-linux-gnu/sys/types.h, line 192:	N236 -{typedef __blkcnt_t blkcnt_t;}-> N237
/usr/include/x86_64-linux-gnu/sys/types.h, line 196:	N237 -{typedef __fsblkcnt_t fsblkcnt_t;}-> N238
/usr/include/x86_64-linux-gnu/sys/types.h, line 200:	N238 -{typedef __fsfilcnt_t fsfilcnt_t;}-> N239
/usr/include/x86_64-linux-gnu/bits/atomic_wide_counter.h, lines 28-32:	N239 -{struct __anon_type_0 {   unsigned int __low;   unsigned int __high; } ;}-> N240
/usr/include/x86_64-linux-gnu/bits/atomic_wide_counter.h, lines 25-33:	N240 -{union __anon_type___atomic_wide_counter {   unsigned long long int __value64;   struct __anon_type_0 __value32; } ;}-> N241
/usr/include/x86_64-linux-gnu/bits/atomic_wide_counter.h, lines 25-33:	N241 -{typedef union __anon_type___atomic_wide_counter __atomic_wide_counter;}-> N242
/usr/include/x86_64-linux-gnu/bits/thread-shared-types.h, lines 51-55:	N242 -{struct __pthread_internal_list {   struct __pthread_internal_list *__prev;   struct __pthread_internal_list *__next; } ;}-> N243
/usr/include/x86_64-linux-gnu/bits/thread-shared-types.h, lines 51-55:	N243 -{typedef struct __pthread_internal_list __pthread_list_t;}-> N244
/usr/include/x86_64-linux-gnu/bits/thread-shared-types.h, lines 57-60:	N244 -{struct __pthread_internal_slist {   struct __pthread_internal_slist *__next; } ;}-> N245
/usr/include/x86_64-linux-gnu/bits/thread-shared-types.h, lines 57-60:	N245 -{typedef struct __pthread_internal_slist __pthread_slist_t;}-> N246
/usr/include/x86_64-linux-gnu/bits/struct_mutex.h, lines 22-53:	N246 -{struct __pthread_mutex_s {   int __lock;   unsigned int __count;   int __owner;   unsigned int __nusers;   int __kind;   short __spins;   short __elision;   __pthread_list_t __list; } ;}-> N247
/usr/include/x86_64-linux-gnu/bits/struct_rwlock.h, lines 23-55:	N247 -{struct __pthread_rwlock_arch_t {   unsigned int __readers;   unsigned int __writers;   unsigned int __wrphase_futex;   unsigned int __writers_futex;   unsigned int __pad3;   unsigned int __pad4;   int __cur_writer;   int __shared;   signed char __rwelision;   unsigned char __pad1[7];   unsigned long int __pad2;   unsigned int __flags; } ;}-> N248
/usr/include/x86_64-linux-gnu/bits/thread-shared-types.h, lines 94-103:	N248 -{struct __pthread_cond_s {   __atomic_wide_counter __wseq;   __atomic_wide_counter __g1_start;   unsigned int __g_refs[2];   unsigned int __g_size[2];   unsigned int __g1_orig_size;   unsigned int __wrefs;   unsigned int __g_signals[2]; } ;}-> N249
/usr/include/x86_64-linux-gnu/bits/thread-shared-types.h, line 105:	N249 -{typedef unsigned int __tss_t;}-> N250
/usr/include/x86_64-linux-gnu/bits/thread-shared-types.h, line 106:	N250 -{typedef unsigned long int __thrd_t;}-> N251
/usr/include/x86_64-linux-gnu/bits/thread-shared-types.h, lines 108-111:	N251 -{struct __anon_type___once_flag {   int __data; } ;}-> N252
/usr/include/x86_64-linux-gnu/bits/thread-shared-types.h, lines 108-111:	N252 -{typedef struct __anon_type___once_flag __once_flag;}-> N253
/usr/include/x86_64-linux-gnu/bits/pthreadtypes.h, line 27:	N253 -{typedef unsigned long int pthread_t;}-> N254
/usr/include/x86_64-linux-gnu/bits/pthreadtypes.h, lines 32-36:	N254 -{union __anon_type_pthread_mutexattr_t {   char __size[4];   int __align; } ;}-> N255
/usr/include/x86_64-linux-gnu/bits/pthreadtypes.h, lines 32-36:	N255 -{typedef union __anon_type_pthread_mutexattr_t pthread_mutexattr_t;}-> N256
/usr/include/x86_64-linux-gnu/bits/pthreadtypes.h, lines 41-45:	N256 -{union __anon_type_pthread_condattr_t {   char __size[4];   int __align; } ;}-> N257
/usr/include/x86_64-linux-gnu/bits/pthreadtypes.h, lines 41-45:	N257 -{typedef union __anon_type_pthread_mutexattr_t pthread_condattr_t;}-> N258
/usr/include/x86_64-linux-gnu/bits/pthreadtypes.h, line 49:	N258 -{typedef unsigned int pthread_key_t;}-> N259
/usr/include/x86_64-linux-gnu/bits/pthreadtypes.h, line 53:	N259 -{typedef int pthread_once_t;}-> N260
/usr/include/x86_64-linux-gnu/bits/pthreadtypes.h, lines 56-60:	N260 -{union pthread_attr_t {   char __size[56];   long int __align; } ;}-> N261
/usr/include/x86_64-linux-gnu/bits/pthreadtypes.h, line 62:	N261 -{typedef union pthread_attr_t pthread_attr_t;}-> N262
/usr/include/x86_64-linux-gnu/bits/pthreadtypes.h, lines 67-72:	N262 -{union __anon_type_pthread_mutex_t {   struct __pthread_mutex_s __data;   char __size[40];   long int __align; } ;}-> N263
/usr/include/x86_64-linux-gnu/bits/pthreadtypes.h, lines 67-72:	N263 -{typedef union __anon_type_pthread_mutex_t pthread_mutex_t;}-> N264
/usr/include/x86_64-linux-gnu/bits/pthreadtypes.h, lines 75-80:	N264 -{union __anon_type_pthread_cond_t {   struct __pthread_cond_s __data;   char __size[48];   long long int __align; } ;}-> N265
/usr/include/x86_64-linux-gnu/bits/pthreadtypes.h, lines 75-80:	N265 -{typedef union __anon_type_pthread_cond_t pthread_cond_t;}-> N266
/usr/include/x86_64-linux-gnu/bits/pthreadtypes.h, lines 86-91:	N266 -{union __anon_type_pthread_rwlock_t {   struct __pthread_rwlock_arch_t __data;   char __size[56];   long int __align; } ;}-> N267
/usr/include/x86_64-linux-gnu/bits/pthreadtypes.h, lines 86-91:	N267 -{typedef union __anon_type_pthread_rwlock_t pthread_rwlock_t;}-> N268
/usr/include/x86_64-linux-gnu/bits/pthreadtypes.h, lines 93-97:	N268 -{union __anon_type_pthread_rwlockattr_t {   char __size[8];   long int __align; } ;}-> N269
/usr/include/x86_64-linux-gnu/bits/pthreadtypes.h, lines 93-97:	N269 -{typedef union __anon_type_pthread_rwlockattr_t pthread_rwlockattr_t;}-> N270
/usr/include/x86_64-linux-gnu/bits/pthreadtypes.h, line 103:	N270 -{typedef volatile int pthread_spinlock_t;}-> N271
/usr/include/x86_64-linux-gnu/bits/pthreadtypes.h, lines 108-112:	N271 -{union __anon_type_pthread_barrier_t {   char __size[32];   long int __align; } ;}-> N272
/usr/include/x86_64-linux-gnu/bits/pthreadtypes.h, lines 108-112:	N272 -{typedef union __anon_type_pthread_barrier_t pthread_barrier_t;}-> N273
/usr/include/x86_64-linux-gnu/bits/pthreadtypes.h, lines 114-118:	N273 -{union __anon_type_pthread_barrierattr_t {   char __size[4];   int __align; } ;}-> N274
/usr/include/x86_64-linux-gnu/bits/pthreadtypes.h, lines 114-118:	N274 -{typedef union __anon_type_pthread_mutexattr_t pthread_barrierattr_t;}-> N275
/usr/include/stdlib.h, line 402:	N275 -{long int random();}-> N276
/usr/include/stdlib.h, line 405:	N276 -{void srandom(unsigned int __seed);}-> N277
/usr/include/stdlib.h, lines 411-412:	N277 -{char *initstate(unsigned int __seed, char *__statebuf, size_t __statelen);}-> N278
/usr/include/stdlib.h, line 416:	N278 -{char *setstate(char *__statebuf);}-> N279
/usr/include/stdlib.h, lines 424-433:	N279 -{struct random_data {   int32_t *fptr;   int32_t *rptr;   int32_t *state;   int rand_type;   int rand_deg;   int rand_sep;   int32_t *end_ptr; } ;}-> N280
/usr/include/stdlib.h, lines 435-436:	N280 -{int random_r(struct random_data *__buf, int32_t *__result);}-> N281
/usr/include/stdlib.h, lines 438-439:	N281 -{int srandom_r(unsigned int __seed, struct random_data *__buf);}-> N282
/usr/include/stdlib.h, lines 441-444:	N282 -{int initstate_r(unsigned int __seed, char *__statebuf, size_t __statelen, struct random_data *__buf);}-> N283
/usr/include/stdlib.h, lines 446-448:	N283 -{int setstate_r(char *__statebuf, struct random_data *__buf);}-> N284
/usr/include/stdlib.h, line 454:	N284 -{int rand();}-> N285
/usr/include/stdlib.h, line 456:	N285 -{void srand(unsigned int __seed);}-> N286
/usr/include/stdlib.h, line 460:	N286 -{int rand_r(unsigned int *__seed);}-> N287
/usr/include/stdlib.h, line 468:	N287 -{double drand48();}-> N288
/usr/include/stdlib.h, line 469:	N288 -{double erand48(unsigned short int __xsubi[3]);}-> N289
/usr/include/stdlib.h, line 472:	N289 -{long int lrand48();}-> N290
/usr/include/stdlib.h, lines 473-474:	N290 -{long int nrand48(unsigned short int __xsubi[3]);}-> N291
/usr/include/stdlib.h, line 477:	N291 -{long int mrand48();}-> N292
/usr/include/stdlib.h, lines 478-479:	N292 -{long int jrand48(unsigned short int __xsubi[3]);}-> N293
/usr/include/stdlib.h, line 482:	N293 -{void srand48(long int __seedval);}-> N294
/usr/include/stdlib.h, lines 483-484:	N294 -{unsigned short int *seed48(unsigned short int __seed16v[3]);}-> N295
/usr/include/stdlib.h, line 485:	N295 -{void lcong48(unsigned short int __param[7]);}-> N296
/usr/include/stdlib.h, lines 491-499:	N296 -{struct drand48_data {   unsigned short int __x[3];   unsigned short int __old_x[3];   unsigned short int __c;   unsigned short int __init;   unsigned long long int __a; } ;}-> N297
/usr/include/stdlib.h, lines 502-503:	N297 -{int drand48_r(struct drand48_data *__buffer, double *__result);}-> N298
/usr/include/stdlib.h, lines 504-506:	N298 -{int erand48_r(unsigned short int __xsubi[3], struct drand48_data *__buffer, double *__result);}-> N299
/usr/include/stdlib.h, lines 509-511:	N299 -{int lrand48_r(struct drand48_data *__buffer, long int *__result);}-> N300
/usr/include/stdlib.h, lines 512-515:	N300 -{int nrand48_r(unsigned short int __xsubi[3], struct drand48_data *__buffer, long int *__result);}-> N301
/usr/include/stdlib.h, lines 518-520:	N301 -{int mrand48_r(struct drand48_data *__buffer, long int *__result);}-> N302
/usr/include/stdlib.h, lines 521-524:	N302 -{int jrand48_r(unsigned short int __xsubi[3], struct drand48_data *__buffer, long int *__result);}-> N303
/usr/include/stdlib.h, lines 527-528:	N303 -{int srand48_r(long int __seedval, struct drand48_data *__buffer);}-> N304
/usr/include/stdlib.h, lines 530-531:	N304 -{int seed48_r(unsigned short int __seed16v[3], struct drand48_data *__buffer);}-> N305
/usr/include/stdlib.h, lines 533-535:	N305 -{int lcong48_r(unsigned short int __param[7], struct drand48_data *__buffer);}-> N306
/usr/include/stdlib.h, lines 540-541:	N306 -{void *malloc(size_t __size);}-> N307
/usr/include/stdlib.h, lines 543-544:	N307 -{void *calloc(size_t __nmemb, size_t __size);}-> N308
/usr/include/stdlib.h, lines 551-552:	N308 -{void *realloc(void *__ptr, size_t __size);}-> N309
/usr/include/stdlib.h, line 555:	N309 -{void free(void *__ptr);}-> N310
/usr/include/stdlib.h, lines 563-566:	N310 -{void *reallocarray(void *__ptr, size_t __nmemb, size_t __size);}-> N311
/usr/include/alloca.h, line 32:	N311 -{void *alloca(size_t __size);}-> N312
/usr/include/stdlib.h, lines 580-581:	N312 -{void *valloc(size_t __size);}-> N313
/usr/include/stdlib.h, lines 586-587:	N313 -{int posix_memalign(void **__memptr, size_t __alignment, size_t __size);}-> N314
/usr/include/stdlib.h, lines 592-594:	N314 -{void *aligned_alloc(size_t __alignment, size_t __size);}-> N315
/usr/include/stdlib.h, line 598:	N315 -{void abort();}-> N316
/usr/include/stdlib.h, line 602:	N316 -{int atexit(void (*__func)());}-> N317
/usr/include/stdlib.h, line 610:	N317 -{int at_quick_exit(void (*__func)());}-> N318
/usr/include/stdlib.h, lines 617-618:	N318 -{int on_exit(void (*__func)(int __status, void *__arg), void *__arg);}-> N319
/usr/include/stdlib.h, line 624:	N319 -{void exit(int __status);}-> N320
/usr/include/stdlib.h, line 630:	N320 -{void quick_exit(int __status);}-> N321
/usr/include/stdlib.h, line 636:	N321 -{void _Exit(int __status);}-> N322
/usr/include/stdlib.h, line 641:	N322 -{char *getenv(const char *__name);}-> N323
/usr/include/stdlib.h, line 654:	N323 -{int putenv(char *__string);}-> N324
/usr/include/stdlib.h, lines 660-661:	N324 -{int setenv(const char *__name, const char *__value, int __replace);}-> N325
/usr/include/stdlib.h, line 664:	N325 -{int unsetenv(const char *__name);}-> N326
/usr/include/stdlib.h, line 671:	N326 -{int clearenv();}-> N327
/usr/include/stdlib.h, line 682:	N327 -{char *mktemp(char *__template);}-> N328
/usr/include/stdlib.h, line 695:	N328 -{int mkstemp(char *__template);}-> N329
/usr/include/stdlib.h, line 717:	N329 -{int mkstemps(char *__template, int __suffixlen);}-> N330
/usr/include/stdlib.h, line 738:	N330 -{char *mkdtemp(char *__template);}-> N331
/usr/include/stdlib.h, line 791:	N331 -{int system(const char *__command);}-> N332
/usr/include/stdlib.h, lines 808-809:	N332 -{char *realpath(const char *__name, char *__resolved);}-> N333
/usr/include/stdlib.h, line 816:	N333 -{typedef int (*__compar_fn_t)(const void *, const void *);}-> N334
/usr/include/stdlib.h, lines 828-830:	N334 -{void *bsearch(const void *__key, const void *__base, size_t __nmemb, size_t __size, __compar_fn_t __compar);}-> N335
/usr/include/stdlib.h, lines 838-839:	N335 -{void qsort(void *__base, size_t __nmemb, size_t __size, __compar_fn_t __compar);}-> N336
/usr/include/stdlib.h, line 848:	N336 -{int abs(int __x);}-> N337
/usr/include/stdlib.h, line 849:	N337 -{long int labs(long int __x);}-> N338
/usr/include/stdlib.h, lines 852-853:	N338 -{long long int llabs(long long int __x);}-> N339
/usr/include/stdlib.h, lines 860-861:	N339 -{div_t div(int __numer, int __denom);}-> N340
/usr/include/stdlib.h, lines 862-863:	N340 -{ldiv_t ldiv(long int __numer, long int __denom);}-> N341
/usr/include/stdlib.h, lines 866-868:	N341 -{lldiv_t lldiv(long long int __numer, long long int __denom);}-> N342
/usr/include/stdlib.h, lines 880-881:	N342 -{char *ecvt(double __value, int __ndigit, int *__decpt, int *__sign);}-> N343
/usr/include/stdlib.h, lines 886-887:	N343 -{char *fcvt(double __value, int __ndigit, int *__decpt, int *__sign);}-> N344
/usr/include/stdlib.h, lines 892-893:	N344 -{char *gcvt(double __value, int __ndigit, char *__buf);}-> N345
/usr/include/stdlib.h, lines 898-900:	N345 -{char *qecvt(long double __value, int __ndigit, int *__decpt, int *__sign);}-> N346
/usr/include/stdlib.h, lines 901-903:	N346 -{char *qfcvt(long double __value, int __ndigit, int *__decpt, int *__sign);}-> N347
/usr/include/stdlib.h, lines 904-905:	N347 -{char *qgcvt(long double __value, int __ndigit, char *__buf);}-> N348
/usr/include/stdlib.h, lines 910-912:	N348 -{int ecvt_r(double __value, int __ndigit, int *__decpt, int *__sign, char *__buf, size_t __len);}-> N349
/usr/include/stdlib.h, lines 913-915:	N349 -{int fcvt_r(double __value, int __ndigit, int *__decpt, int *__sign, char *__buf, size_t __len);}-> N350
/usr/include/stdlib.h, lines 917-920:	N350 -{int qecvt_r(long double __value, int __ndigit, int *__decpt, int *__sign, char *__buf, size_t __len);}-> N351
/usr/include/stdlib.h, lines 921-924:	N351 -{int qfcvt_r(long double __value, int __ndigit, int *__decpt, int *__sign, char *__buf, size_t __len);}-> N352
/usr/include/stdlib.h, line 930:	N352 -{int mblen(const char *__s, size_t __n);}-> N353
/usr/include/stdlib.h, lines 933-934:	N353 -{int mbtowc(wchar_t *__pwc, const char *__s, size_t __n);}-> N354
/usr/include/stdlib.h, line 937:	N354 -{int wctomb(char *__s, wchar_t __wchar);}-> N355
/usr/include/stdlib.h, lines 941-943:	N355 -{size_t mbstowcs(wchar_t *__pwcs, const char *__s, size_t __n);}-> N356
/usr/include/stdlib.h, lines 945-949:	N356 -{size_t wcstombs(char *__s, const wchar_t *__pwcs, size_t __n);}-> N357
/usr/include/stdlib.h, line 956:	N357 -{int rpmatch(const char *__response);}-> N358
/usr/include/stdlib.h, lines 967-970:	N358 -{int getsubopt(char **__optionp, char * const *__tokens, char **__valuep);}-> N359
/usr/include/stdlib.h, lines 1013-1014:	N359 -{int getloadavg(double __loadavg[], int __nelem);}-> N360
lines 4-6:	N360 -{void assume(int cond);}-> N361
lines 8-50:	N361 -{int main();}-> N362
none:	N362 -{Function start dummy edge}-> N38
line 10:	N38 -{int local_2c;}-> N39
line 11:	N39 -{int local_28;}-> N40
line 12:	N40 -{int expr_tmp_var_131_int;}-> N41
	expr_tmp_var_131_int == 0;
line 13:	N41 -{int expr_tmp_var_130_int;}-> N42
line 14:	N42 -{int expr_tmp_var_129_int;}-> N43
line 15:	N43 -{int w;}-> N44
line 16:	N44 -{int z;}-> N45
line 17:	N45 -{int y;}-> N46
line 18:	N46 -{int x;}-> N47
line 20:	N47 -{expr_tmp_var_130_int = 0;}-> N48
	expr_tmp_var_130_int == 0;
line 21:	N48 -{expr_tmp_var_129_int = 0;}-> N49
	expr_tmp_var_129_int == 0;
line 22:	N49 -{w = 0;}-> N50
	w == 0;
line 23:	N50 -{z = 0;}-> N51
	expr_tmp_var_131_int == 0;
	expr_tmp_var_130_int == 0;
	expr_tmp_var_129_int == 0;
	w == 0;
	z == 0;
line 25:	N51 -{while}-> N52
line 25:	N52 -{[!(expr_tmp_var_131_int != 0)]}-> N54
	expr_tmp_var_131_int == 0;
	expr_tmp_var_131_int == 0;
line 45:	N54 -{[z < 4]}-> N75
	z == 0;
	z == 0;
line 46:	N75 -{int __CPAchecker_TMP_2;}-> N77
line 46:	N77 -{}-> N79
line 46:	N79 -{__CPAchecker_TMP_2 = 0;}-> N81
line 46:	N81 -{4UL;}-> N82
line 46:	N82 -{}-> N85
line 46:	N85 -{__assert_fail("0 && \"Assertion failed: x >= 4 && y <= 2\"", "/home/zyl/biVerify/CPA_DATA2/C/F/llmfix/realOutput/iterationTry/gcnr2008_process_dc_iter1.c", 46, "__PRETTY_FUNCTION__");}-> N364
